(set-option :produce-models true)
(set-logic QF_UF)
(declare-fun p24() Bool)
(declare-fun p34() Bool)
(declare-fun p50() Bool)
(declare-fun p7() Bool)
(declare-fun p27() Bool)
(declare-fun p112() Bool)
(declare-fun p6() Bool)
(declare-fun p41() Bool)
(declare-fun p23() Bool)
(declare-fun p101() Bool)
(declare-fun p42() Bool)
(declare-fun p70() Bool)
(declare-fun p67() Bool)
(declare-fun p104() Bool)
(declare-fun p20() Bool)
(declare-fun p18() Bool)
(declare-fun p93() Bool)
(declare-fun p44() Bool)
(declare-fun p110() Bool)
(declare-fun p10() Bool)
(declare-fun p107() Bool)
(declare-fun p25() Bool)
(declare-fun p108() Bool)
(declare-fun p117() Bool)
(declare-fun p32() Bool)
(declare-fun p99() Bool)
(declare-fun p3() Bool)
(declare-fun p71() Bool)
(declare-fun p100() Bool)
(declare-fun p92() Bool)
(declare-fun p26() Bool)
(declare-fun p77() Bool)
(declare-fun p9() Bool)
(declare-fun p8() Bool)
(declare-fun p39() Bool)
(declare-fun p4() Bool)
(declare-fun p46() Bool)
(declare-fun p47() Bool)
(declare-fun p49() Bool)
(declare-fun p15() Bool)
(declare-fun p91() Bool)
(declare-fun p30() Bool)
(declare-fun p116() Bool)
(declare-fun p105() Bool)
(declare-fun p13() Bool)
(declare-fun p17() Bool)
(declare-fun p97() Bool)
(declare-fun p37() Bool)
(declare-fun p52() Bool)
(declare-fun p60() Bool)
(declare-fun p5() Bool)
(declare-fun p21() Bool)
(declare-fun p81() Bool)
(declare-fun p0() Bool)
(declare-fun p2() Bool)
(declare-fun p65() Bool)
(declare-fun p56() Bool)
(declare-fun p54() Bool)
(declare-fun p87() Bool)
(declare-fun p76() Bool)
(declare-fun p40() Bool)
(declare-fun p89() Bool)
(declare-fun p69() Bool)
(declare-fun p64() Bool)
(declare-fun p111() Bool)
(declare-fun p84() Bool)
(declare-fun p115() Bool)
(declare-fun p82() Bool)
(declare-fun p55() Bool)
(declare-fun p119() Bool)
(declare-fun p35() Bool)
(declare-fun p75() Bool)
(declare-fun p59() Bool)
(declare-fun p19() Bool)
(declare-fun p85() Bool)
(declare-fun p98() Bool)
(declare-fun p113() Bool)
(declare-fun p29() Bool)
(declare-fun p62() Bool)
(declare-fun p73() Bool)
(declare-fun p96() Bool)
(declare-fun p33() Bool)
(declare-fun p68() Bool)
(declare-fun p63() Bool)
(declare-fun p38() Bool)
(declare-fun p61() Bool)
(declare-fun p83() Bool)
(declare-fun p16() Bool)
(declare-fun p90() Bool)
(declare-fun p72() Bool)
(declare-fun p57() Bool)
(declare-fun p58() Bool)
(declare-fun p109() Bool)
(declare-fun p1() Bool)
(declare-fun p36() Bool)
(declare-fun p94() Bool)
(declare-fun p103() Bool)
(declare-fun p28() Bool)
(declare-fun p22() Bool)
(declare-fun p53() Bool)
(declare-fun p74() Bool)
(declare-fun p118() Bool)
(declare-fun p51() Bool)
(declare-fun p88() Bool)
(declare-fun p48() Bool)
(declare-fun p11() Bool)
(declare-fun p14() Bool)
(declare-fun p102() Bool)
(declare-fun p43() Bool)
(declare-fun p78() Bool)
(declare-fun p106() Bool)
(declare-fun p31() Bool)
(declare-fun p12() Bool)
(declare-fun p114() Bool)
(declare-fun p95() Bool)
(declare-fun p66() Bool)
(declare-fun p80() Bool)
(declare-fun p79() Bool)
(declare-fun p45() Bool)
(declare-fun p86() Bool)
(assert
(and (or (not p24) p34 p50) (or (not p7) p27 p112) (or p6 p41 p23) (or p101 p42 (not p70)) (or p67 p104 (not p20)) (or p18 p93 (not p44)) (or p110 (not p10) p107) (or p25 (not p108) (not p117)) (or p32 (not p99) p3) (or (not p71) p100 p92) (or (not p110) p110 p26) (or p70 p77 p9) (or (not p8) p39 (not p39)) (or (not p4) p46 p47) (or p49 (not p15) p91) (or p30 (not p104) (not p116)) (or (not p105) (not p107) p13) (or (not p7) p17 p97) (or p30 p37 p93) (or p26 (not p52) p41) (or (not p60) (not p5) p21) (or (not p97) (not p81) (not p0)) (or p50 (not p2) (not p65)) (or p20 (not p56) (not p60)) (or (not p54) p87 (not p107)) (or p110 (not p76) (not p3)) (or (not p52) (not p5) p41) (or (not p40) (not p104) p89) (or (not p69) p60 (not p23)) (or (not p64) (not p40) (not p30)) (or p116 (not p92) p21) (or p64 p111 p49) (or p17 p84 (not p115)) (or p67 (not p84) p82) (or (not p55) p42 (not p25)) (or (not p52) p46 p119) (or (not p35) (not p0) p41) (or (not p75) (not p59) p41) (or p34 p19 p85) (or (not p25) p98 p34) (or p119 (not p44) p47) (or p113 p29 (not p62)) (or p2 p112 (not p26)) (or (not p73) p100 p115) (or (not p18) (not p104) p96) (or p35 p33 p10) (or p13 p116 (not p68)) (or (not p112) p49 p62) (or p119 p42 (not p63)) (or (not p115) (not p117) p98) (or (not p47) p81 p97) (or (not p39) (not p97) p37) (or p44 (not p18) (not p10)) (or p71 (not p54) p77) (or (not p60) p55 (not p38)) (or (not p41) p59 p73) (or p116 (not p105) p40) (or p119 p59 p4) (or p61 p83 (not p16)) (or (not p44) p71 (not p90)) (or (not p32) p72 p57) (or (not p100) p4 p26) (or (not p58) (not p63) (not p71)) (or p50 p109 (not p110)) (or p111 p42 (not p1)) (or p29 (not p49) (not p49)) (or p44 (not p36) (not p90)) (or (not p94) p18 (not p87)) (or p87 (not p6) (not p57)) (or (not p109) (not p94) p30) (or (not p84) p17 p103) (or (not p90) (not p19) p116) (or p23 (not p92) p41) (or (not p39) (not p50) (not p44)) (or p28 (not p22) p35) (or p53 (not p41) p10) (or (not p74) (not p98) (not p61)) (or p67 p23 (not p61)) (or (not p9) p97 (not p65)) (or (not p10) (not p3) (not p37)) (or p97 p98 p36) (or p73 (not p67) (not p55)) (or p10 p99 (not p41)) (or p92 p107 p15) (or p118 (not p51) (not p119)) (or p100 p53 (not p10)) (or (not p24) p0 p88) (or p30 (not p48) p1) (or p9 (not p65) p11) (or p2 p5 p55) (or (not p59) (not p74) (not p87)) (or (not p63) p10 p103) (or p72 p107 (not p14)) (or p102 p43 (not p44)) (or (not p78) p9 (not p49)) (or p28 p107 (not p62)) (or (not p88) p48 (not p87)) (or p40 p47 p115) (or p8 (not p73) (not p21)) (or (not p5) (not p74) (not p89)) (or (not p58) p69 (not p78)) (or (not p28) (not p81) (not p49)) (or p39 p40 p4) (or p106 (not p83) p26) (or p19 p31 p8) (or (not p30) (not p103) p76) (or (not p41) p98 (not p89)) (or p39 p41 p36) (or (not p29) (not p24) (not p12)) (or (not p54) p52 p117) (or p113 p114 p20) (or p26 (not p60) (not p101)) (or (not p51) p73 p7) (or (not p8) p1 (not p52)) (or (not p2) p55 (not p106)) (or p29 p63 (not p89)) (or p93 (not p59) (not p95)) (or (not p44) (not p115) p51) (or p36 (not p33) p27) (or (not p119) (not p42) (not p114)) (or (not p24) p66 (not p32)) (or p83 p28 p18) (or p10 p70 (not p40)) (or p38 p69 p60) (or (not p25) p80 (not p73)) (or p98 p14 (not p17)) (or (not p21) (not p21) p0) (or (not p64) (not p70) (not p101)) (or (not p62) p50 (not p10)) (or p112 (not p82) (not p91)) (or p16 p14 p46) (or (not p111) p1 (not p82)) (or (not p48) p58 p93) (or (not p36) p112 p14) (or (not p71) p28 (not p65)) (or p27 (not p61) (not p69)) (or (not p97) (not p41) p5) (or p65 p95 (not p72)) (or p21 (not p89) p49) (or p113 (not p119) (not p115)) (or (not p78) (not p63) (not p39)) (or (not p74) p4 (not p38)) (or (not p17) p68 p106) (or p26 (not p87) (not p50)) (or p97 p50 p108) (or (not p57) (not p105) (not p46)) (or p85 (not p57) p7) (or (not p31) (not p72) p56) (or p6 (not p88) p88) (or (not p51) p91 (not p43)) (or p107 p52 (not p84)) (or (not p56) (not p21) (not p103)) (or p103 p17 p26) (or p71 (not p109) (not p15)) (or p54 (not p11) (not p49)) (or (not p36) p30 p52) (or (not p22) p44 (not p0)) (or (not p12) (not p115) (not p68)) (or p25 (not p80) (not p87)) (or p3 (not p48) (not p63)) (or (not p14) p85 p101) (or p66 (not p62) p13) (or (not p39) (not p103) (not p1)) (or p55 (not p100) p94) (or p54 p49 (not p18)) (or (not p112) p63 p56) (or (not p16) p90 p98) (or p50 (not p119) (not p19)) (or p100 p79 (not p31)) (or (not p77) (not p16) (not p70)) (or p19 p15 p53) (or (not p41) p40 (not p52)) (or (not p1) (not p91) (not p36)) (or p10 (not p12) (not p91)) (or (not p29) p50 (not p22)) (or p94 (not p80) (not p113)) (or p63 p73 (not p64)) (or (not p11) (not p87) p111) (or (not p93) p12 p115) (or p45 (not p99) (not p56)) (or p12 (not p91) (not p52)) (or (not p101) (not p41) p102) (or p17 (not p111) p31) (or p68 p4 p60) (or p56 p40 p61) (or p90 (not p92) p12) (or (not p74) (not p109) (not p100)) (or p45 p62 (not p101)) (or p59 (not p51) p117) (or p81 (not p85) p34) (or (not p64) p45 (not p76)) (or (not p40) (not p103) (not p113)) (or (not p108) p83 p109) (or p10 p63 p116) (or (not p2) p0 (not p11)) (or (not p18) p54 p80) (or p87 (not p69) p105) (or (not p46) p59 (not p76)) (or p110 p46 p90) (or p42 (not p92) (not p23)) (or (not p15) (not p107) (not p55)) (or (not p45) (not p60) p73) (or p80 p112 p27) (or p91 (not p104) p26) (or p27 (not p64) (not p45)) (or p65 (not p104) p80) (or (not p57) (not p89) (not p77)) (or p84 p43 p117) (or p48 p74 (not p54)) (or (not p103) p49 p4) (or p62 p6 p100) (or p43 p27 p100) (or (not p19) p19 (not p89)) (or (not p102) p81 (not p9)) (or p43 p14 p40) (or p96 (not p45) p6) (or p105 p45 (not p62)) (or (not p87) p60 (not p4)) (or (not p3) (not p96) (not p71)) (or p78 (not p59) (not p49)) (or (not p108) (not p80) p21) (or (not p107) (not p80) (not p102)) (or p61 p104 p64) (or (not p13) (not p21) (not p94)) (or (not p92) p74 (not p101)) (or p115 p48 (not p70)) (or p37 p53 p54) (or p107 (not p108) (not p102)) (or (not p80) p67 (not p22)) (or p33 (not p15) p46) (or p109 p18 (not p94)) (or (not p65) p72 (not p21)) (or (not p39) p91 (not p115)) (or (not p86) p56 p93) (or p23 (not p119) p30) (or (not p50) p58 p35) (or (not p56) p49 p55) (or p29 (not p66) p50) (or (not p10) (not p4) p83) (or p102 p68 (not p50)) (or (not p66) (not p81) (not p11)) (or (not p60) p81 (not p90)) (or p117 (not p65) (not p54)) (or (not p93) p93 p9) (or (not p32) (not p90) p105) (or (not p74) p16 (not p32)) (or (not p67) p100 p66) (or (not p32) (not p51) (not p95)) (or p52 p91 p56) (or p98 (not p3) (not p83)) (or p28 (not p104) (not p21)) (or (not p98) p113 p101) (or p102 p48 p117) (or (not p111) (not p9) (not p101)) (or (not p108) p13 p18) (or (not p84) (not p96) (not p19)) (or (not p42) p117 p113) (or p66 (not p7) p38) (or (not p36) (not p26) p32) (or (not p54) (not p73) (not p98)) (or p68 p86 p45) (or (not p110) p79 p32) (or p50 p12 (not p42)) (or (not p81) p7 (not p113)) (or p41 p74 (not p54)) (or p83 p112 p45) (or (not p78) (not p74) (not p106)) (or (not p74) p82 p81) (or p26 p51 (not p30)) (or p16 (not p96) p45) (or p50 (not p87) (not p19)) (or p41 p31 (not p44)) (or p87 (not p107) (not p2)) (or p20 (not p116) p107) (or (not p14) (not p74) (not p3)) (or (not p80) p69 (not p107)) (or (not p54) p21 p57) (or (not p5) (not p33) p46) (or (not p31) p69 (not p90)) (or (not p56) p98 p70) (or (not p78) p110 p80) (or p73 (not p59) p84) (or (not p66) (not p80) p83) (or p77 (not p59) p92) (or (not p69) p23 p63) (or (not p33) p18 p42) (or (not p34) (not p58) p12) (or (not p74) p10 p114) (or (not p82) p40 (not p22)) (or (not p2) p30 (not p48)) (or (not p50) (not p11) (not p44)) (or (not p31) p2 p73) (or p15 (not p60) p89) (or p79 p16 (not p49)) (or (not p88) (not p80) (not p25)) (or (not p119) (not p93) (not p72)) (or p87 p52 (not p61)) (or p65 (not p39) p7) (or (not p55) p44 (not p36)) (or p119 p45 p57) (or p8 (not p81) p6) (or p16 p117 (not p116)) (or (not p7) p7 p10) (or p57 (not p88) (not p112)) (or (not p100) p99 p15) (or (not p99) p54 p117) (or p37 p94 (not p72)) (or p55 (not p14) p46) (or p98 (not p88) (not p118)) (or p19 (not p40) (not p56)) (or p18 (not p110) (not p44)) (or p107 p14 (not p100)) (or p59 p66 (not p17)) (or p101 (not p57) (not p101)) (or (not p33) (not p38) p43) (or p67 p46 (not p92)) (or (not p108) (not p16) p64) (or p13 p106 p58) (or (not p105) (not p56) p91) (or p99 (not p65) p1) (or p88 p111 (not p95)) (or p119 p17 p16) (or (not p76) (not p92) (not p86)) (or (not p67) p98 (not p55)) (or p94 (not p46) (not p8)) (or (not p49) p69 p43) (or (not p82) p65 (not p112)) (or p111 (not p30) p37) (or p38 (not p29) p11) (or p84 p75 (not p30)) (or p46 (not p64) p86) (or (not p13) (not p71) (not p79)) (or p115 p105 (not p43)) (or p112 p5 p44) (or p20 (not p71) p44) (or p50 (not p11) p17) (or (not p13) (not p116) p7) (or (not p46) p83 (not p26)) (or (not p109) (not p55) p18) (or (not p86) p117 (not p110)) (or p87 p70 (not p82)) (or (not p24) (not p25) (not p65)) (or p72 (not p10) p91) (or p6 p67 p47) (or p16 (not p107) p7) (or p76 (not p33) (not p17)) (or p52 p100 (not p82)) (or (not p105) p46 (not p103)) (or (not p119) p8 p3) (or p40 p82 p1) (or p71 p69 (not p51)) (or (not p10) (not p87) (not p51)) (or (not p103) p87 (not p81)) (or (not p31) (not p54) (not p34)) (or p93 (not p112) (not p26)) (or p5 (not p70) p87) (or (not p28) p91 p44) (or (not p8) p82 (not p10)) (or p30 (not p3) p114) (or p21 (not p86) p108) (or (not p82) (not p9) (not p53)) (or p63 (not p94) p6) (or (not p73) (not p116) p14) (or p49 (not p67) (not p31)) (or p89 p76 (not p113)) (or (not p4) (not p52) p16) (or (not p118) p68 p60) (or p47 (not p77) (not p43)) (or (not p95) (not p12) (not p53)) (or (not p65) (not p62) p87) (or (not p50) (not p74) (not p36)) (or (not p10) p21 (not p14)) (or p17 (not p84) p105) (or (not p16) p97 p110) (or (not p61) (not p118) p44) (or p85 p117 (not p82)) (or (not p78) (not p77) p39) (or (not p82) (not p38) (not p44)) (or p56 p40 p117) (or (not p82) p53 p2) (or (not p11) (not p91) p46) (or p36 p16 p1) (or (not p22) p12 p15) (or (not p109) (not p42) (not p77)) (or (not p21) (not p42) p7) (or p43 p7 p2) (or (not p2) p77 p92) (or (not p25) p25 (not p79)) (or p110 (not p29) (not p67)) (or p56 p115 (not p107)) (or (not p24) p91 p53) (or (not p116) p57 (not p18)) (or (not p79) p53 (not p94)) (or p102 p29 (not p51)) (or (not p33) p2 (not p30)) (or p70 (not p61) (not p12)) (or (not p77) p25 (not p84)) (or (not p15) p31 p101) (or (not p31) (not p1) p79) (or p102 p72 (not p59)) (or (not p76) (not p54) p118) (or p39 (not p92) (not p105)) (or p90 p3 p74) (or p85 (not p18) p44) (or p13 p21 p57) (or (not p31) (not p35) (not p10)) (or p37 (not p101) (not p58)) (or p108 p96 (not p25)) (or (not p92) (not p13) p100) (or (not p35) (not p13) (not p114)) (or p25 (not p84) (not p103)) (or (not p50) (not p18) (not p41)) (or (not p91) p116 (not p36)) (or (not p102) (not p119) p9) (or (not p4) (not p50) (not p76)) (or p118 p5 p49) (or p4 p102 (not p21)) (or p74 (not p49) (not p100)) (or (not p103) p13 p97) (or p59 p96 (not p81)) (or (not p31) p49 (not p15)) (or p101 p93 p58) (or (not p10) (not p92) p27) (or p17 (not p67) p82) (or p81 (not p107) p26) (or p14 (not p60) p113) (or (not p21) (not p71) (not p12)) (or p73 p27 (not p11)) (or (not p116) p90 (not p16)) (or (not p87) p73 (not p22)) (or (not p68) (not p50) p73) (or (not p65) p9 p12) (or (not p40) p87 p21) (or p116 p65 (not p99)) (or p103 p69 p24) (or p77 p89 p50) (or (not p110) p14 p21) (or (not p41) (not p27) p2) (or (not p44) p35 p99) (or p7 p104 (not p17)) (or (not p93) (not p117) (not p2)) (or (not p25) (not p107) p79) (or p75 p61 (not p28)) (or (not p54) p39 (not p7)) (or (not p59) (not p56) (not p8)) (or (not p27) p27 (not p11)) (or (not p52) (not p82) p13) (or p82 (not p59) (not p61)) (or (not p74) p14 p104) (or (not p62) p8 (not p4)) (or (not p119) p29 (not p116)) (or p48 p22 (not p82)) (or p11 (not p50) p61) (or p115 (not p3) (not p66)) (or p41 (not p3) (not p80)) (or (not p112) p8 (not p8)) (or (not p99) p81 p46) (or (not p11) (not p70) (not p12)) (or (not p47) (not p87) (not p75)) (or p28 p86 p0) (or (not p33) p76 (not p96)) (or (not p23) p31 (not p88)) (or (not p50) (not p100) (not p13)) (or p68 (not p68) (not p90)) (or (not p49) (not p113) (not p71)) (or (not p45) (not p33) p40) (or (not p22) p38 (not p34)) (or p46 (not p46) (not p52)) (or p73 p19 p113) (or (not p51) p118 p41) (or (not p47) p13 (not p8)) (or p9 p1 (not p92)) (or (not p77) p99 (not p78)) (or (not p3) p105 (not p103)) (or p73 p119 (not p72)) (or (not p112) p32 p26) (or p32 p99 p56) (or p61 (not p57) (not p76)) (or p67 p81 p79) (or (not p84) p58 p93) (or p57 p94 (not p99)) (or (not p59) (not p48) p94) (or (not p23) (not p1) p48) (or p19 (not p104) p53) (or p47 p30 p97) (or (not p15) p25 (not p7)) (or p98 p51 (not p105)) (or p77 (not p4) (not p17)) (or p99 p18 (not p29)) (or p72 p64 p88) (or (not p92) p62 p16) (or (not p77) p68 p111) (or (not p65) p18 (not p114)) (or p19 (not p28) (not p102)) (or p60 (not p2) p24) (or p29 (not p85) (not p97)) (or (not p74) p106 p119) (or p70 (not p0) (not p110)) (or (not p34) p97 p12) (or p58 (not p28) p104) (or (not p17) p40 p56) (or p7 p103 p116) (or (not p81) p102 (not p0)) (or (not p15) (not p119) (not p73)) (or p87 p10 p36) (or (not p91) p78 p70) (or p55 (not p102) p95) (or p111 p98 (not p44)) (or (not p117) p104 (not p78)) (or p33 (not p107) (not p103)) (or (not p59) p34 p14) (or (not p82) p29 (not p67)) (or (not p6) (not p106) (not p35)) (or (not p94) (not p60) (not p54)) (or p19 (not p54) (not p11)) (or p0 (not p10) p24) (or (not p15) (not p22) p71) (or p35 p11 (not p110)) (or p16 (not p0) (not p18)) (or (not p52) p107 p47) (or (not p91) (not p42) p76) (or p90 p62 (not p17)) (or p8 p88 p69) (or (not p16) p65 (not p11)) (or p31 (not p89) (not p8)) (or (not p111) p36 p77) (or p86 p65 (not p118)) (or p6 (not p1) (not p118)) (or p119 (not p13) (not p33)) (or p18 (not p25) p79) (or p72 (not p17) p67) (or p15 p112 (not p24)) (or (not p2) p56 p88) (or (not p114) p98 (not p22)) (or p117 p115 p37) (or (not p69) p111 (not p65)) (or (not p25) (not p38) p15) (or (not p117) p84 p24) (or (not p19) p6 (not p46)) (or (not p52) (not p73) (not p114)) (or p23 p4 p8) (or p28 (not p55) (not p64)) (or (not p2) (not p17) (not p109)) (or (not p86) p16 (not p21)) (or (not p109) p78 p75) (or (not p18) (not p50) p1) (or (not p71) (not p46) p81) (or (not p76) p95 p61) (or p117 (not p25) (not p59)) (or (not p92) p86 (not p27)) (or p79 p79 p95) (or (not p112) p9 p56) (or (not p113) p29 p70) (or (not p4) (not p52) (not p99)) (or (not p22) p41 (not p64)) (or (not p87) (not p8) p26) (or (not p55) (not p5) (not p47)) (or (not p63) (not p115) (not p8)) (or p20 (not p28) (not p82)) (or (not p12) (not p98) (not p12)) (or (not p19) p69 (not p58)) (or (not p86) p33 p97) (or p84 p20 p34) (or p57 p21 p25) (or p105 (not p23) (not p67)) (or p41 p91 p60) (or p9 (not p39) p36) (or p15 p19 (not p106)) (or p61 (not p36) (not p99)) (or (not p62) p97 p1) (or (not p47) (not p115) p0) (or p29 p104 (not p15)) (or (not p73) (not p114) (not p8)) (or (not p16) (not p105) p108) (or p26 p99 (not p50)) (or p69 (not p15) p94) (or p58 p63 (not p15)) (or p52 (not p4) p41) (or (not p118) p101 p84) (or p34 (not p43) (not p17)) (or (not p79) p9 p105) (or p79 p21 (not p97)) (or p43 p51 p19) (or p22 p75 (not p48)) (or p7 p32 p7) (or p107 (not p6) p114) (or p75 p13 p67) (or p48 p54 p94) (or (not p22) (not p73) (not p59)) (or (not p7) (not p101) (not p84)) (or (not p98) (not p71) (not p57)) (or p27 p93 p23) (or p92 (not p49) (not p77)) (or p5 (not p68) (not p119)) (or p73 (not p52) (not p45)) (or (not p66) p48 (not p111)) (or (not p113) p75 (not p6)) (or p14 (not p71) (not p26)) (or p105 (not p6) p56))
)
(check-sat)
(get-model)
